InboundTrucks  = 12;
OutboundTrucks = 8;
InboundDoors   = 4;
OutboundDoors  = 4;
ReleaseTime    = [5,0,0,5,2,1,1,1,5,0,5,5];
UnloadTime     = [37,22,38,33,21,20,22,26,27,36,39,20];
LoadTime       = [21,28,22,29,23,15,20,28];
TransferTime   = [| 31,27,0,23,31,16,0,34 | 16,0,32,48,26,12,39,44 | 17,0,0,45,28,50,49,33 | 0,22,0,12,0,0,15,24 | 16,34,27,39,50,33,20,0 | 0,23,0,14,48,0,20,44 | 25,20,39,34,27,50,45,24 | 30,13,24,12,0,0,27,0 | 23,46,0,23,41,0,39,19 | 26,0,25,45,44,0,47,0 | 0,35,33,24,18,42,41,15 | 13,17,0,50,20,37,0,14 |];
